PROBLEM NAME: eil51_n7
KNAPSACK DATA TYPE: uncorrelated
DIMENSION: 7
NUMBER OF ITEMS: 6
CAPACITY OF KNAPSACK: 795
MIN SPEED: 0.1
MAX SPEED: 1
RENTING RATIO: 1.75
EDGE_WEIGHT_TYPE: CEIL_2D
NODE_COORD_SECTION	(INDEX, X, Y):
1	42	57
2	7	38
3	30	48
4	45	35
5	5	6
6	56	37
7	30	40
ITEMS SECTION	(INDEX, PROFIT, WEIGHT, ASSIGNED NODE NUMBER):
1	992	421	3
2	649	322	7
3	506	326	2
4	416	248	5
5	237	795	4
6	94	485	6
